c ! encoding i-pc 250
p cnf 542 958
-251 0
131 -252 0
251 -253 0
251 -254 0
251 -255 0
251 -256 0
257 0
258 -259 0
259 -260 0
191 -260 0
1 -261 0
-191 -261 0
260 261 -262 0
262 -263 0
-205 -263 0
263 -264 0
84 -264 0
1 -265 0
-191 -265 0
265 -267 0
266 -267 0
267 -268 0
-84 -268 0
264 268 -269 0
-4 -270 0
80 -270 0
271 -272 0
272 -273 0
-80 -273 0
270 273 -274 0
275 -277 0
276 -277 0
277 -278 0
149 -278 0
189 -279 0
-241 -279 0
279 -280 0
-149 -280 0
278 280 -281 0
269 -282 0
274 -282 0
281 -282 0
-111 -282 0
282 -283 0
243 -283 0
-205 -284 0
284 -285 0
84 -285 0
286 -287 0
287 -288 0
205 -288 0
-205 -289 0
288 289 -290 0
290 -291 0
-84 -291 0
285 291 -292 0
4 -293 0
149 -293 0
-189 -293 0
292 -294 0
262 -294 0
293 -294 0
275 -294 0
294 -295 0
-243 -295 0
283 295 -296 0
297 -299 0
298 -299 0
299 -300 0
132 -300 0
118 -301 0
302 -303 0
303 -304 0
-118 -304 0
301 304 -305 0
305 -306 0
-159 -306 0
306 -307 0
-132 -307 0
300 307 -308 0
309 -310 0
310 -311 0
9 -311 0
-9 -312 0
311 312 -313 0
296 -314 0
308 -314 0
313 -314 0
44 -314 0
314 -315 0
60 -315 0
-205 -316 0
84 -316 0
266 -317 0
317 -318 0
-84 -318 0
316 318 -319 0
275 -320 0
320 -321 0
149 -321 0
-241 -322 0
-149 -322 0
321 322 -323 0
-111 -324 0
243 -324 0
319 -325 0
274 -325 0
323 -325 0
324 -325 0
325 -326 0
189 -326 0
319 -327 0
274 -327 0
-111 -327 0
327 -328 0
243 -328 0
4 -329 0
292 -330 0
329 -330 0
330 -331 0
-243 -331 0
328 331 -332 0
332 -333 0
149 -333 0
275 -333 0
333 -334 0
-189 -334 0
326 334 -335 0
1 -336 0
-9 -336 0
159 -336 0
-191 -336 0
335 -337 0
336 -337 0
337 -339 0
338 -339 0
339 -340 0
-60 -340 0
315 340 -341 0
342 -343 0
343 -344 0
141 -344 0
170 -345 0
-141 -345 0
344 345 -346 0
68 -347 0
-187 -347 0
341 -349 0
346 -349 0
347 -349 0
348 -349 0
349 -350 0
85 -350 0
84 -351 0
-205 -351 0
274 -352 0
281 -352 0
351 -352 0
352 -353 0
243 -353 0
292 -354 0
293 -354 0
275 -354 0
354 -355 0
-243 -355 0
353 355 -356 0
-68 -357 0
72 -357 0
357 -358 0
142 -358 0
348 -360 0
359 -360 0
360 -361 0
-142 -361 0
358 361 -362 0
44 -363 0
60 -363 0
141 -363 0
191 -363 0
342 -364 0
258 -364 0
356 -365 0
362 -365 0
313 -365 0
308 -365 0
363 -365 0
364 -365 0
365 -367 0
366 -367 0
367 -368 0
-85 -368 0
370 -371 0
371 -372 0
124 -372 0
-124 -373 0
248 -375 0
376 -377 0
377 -378 0
-248 -378 0
-47 -380 0
-91 -380 0
-116 -380 0
-144 -380 0
-168 -380 0
-171 -380 0
-219 -380 0
381 -385 0
382 -385 0
383 -385 0
384 -385 0
369 -386 0
374 -386 0
379 -386 0
385 -386 0
-103 -389 0
25 -397 0
251 -398 0
251 -399 0
251 -400 0
251 -401 0
251 -402 0
251 -403 0
251 -404 0
251 -405 0
-205 -407 0
406 -407 0
407 -408 0
84 -408 0
-191 -409 0
266 -409 0
409 -410 0
-84 -410 0
408 410 -411 0
-47 -412 0
171 -412 0
230 -412 0
412 -414 0
413 -414 0
414 -415 0
103 -415 0
230 -416 0
413 -416 0
416 -417 0
171 -417 0
313 -418 0
-171 -418 0
417 418 -419 0
419 -421 0
420 -421 0
421 -422 0
-103 -422 0
415 422 -423 0
-50 -424 0
-72 -424 0
116 -424 0
168 -424 0
219 -424 0
258 -426 0
425 -426 0
411 -427 0
423 -427 0
424 -427 0
426 -427 0
427 -428 0
91 -428 0
-47 -429 0
-103 -429 0
-116 -429 0
-144 -429 0
-168 -429 0
-171 -429 0
-219 -429 0
348 -430 0
384 -430 0
269 -431 0
313 -431 0
429 -431 0
430 -431 0
431 -432 0
-91 -432 0
428 432 -433 0
433 -434 0
308 -434 0
44 -434 0
434 -435 0
60 -435 0
-9 -436 0
-47 -436 0
171 -436 0
436 -437 0
103 -437 0
419 -438 0
47 -438 0
-9 -439 0
439 -441 0
440 -441 0
441 -442 0
-47 -442 0
438 442 -443 0
443 -444 0
-103 -444 0
437 444 -445 0
258 -446 0
425 -446 0
445 -447 0
424 -447 0
446 -447 0
447 -448 0
91 -448 0
1 -449 0
-9 -449 0
-47 -449 0
-103 -449 0
-116 -449 0
-144 -449 0
-168 -449 0
-171 -449 0
-219 -449 0
348 -450 0
384 -450 0
449 -451 0
450 -451 0
451 -452 0
-91 -452 0
448 452 -453 0
159 -454 0
-191 -454 0
319 -455 0
453 -455 0
454 -455 0
455 -456 0
338 -456 0
456 -457 0
-60 -457 0
435 457 -458 0
458 -459 0
346 -459 0
347 -459 0
459 -460 0
85 -460 0
-50 -461 0
-72 -461 0
91 -461 0
116 -461 0
219 -461 0
420 -462 0
359 -462 0
461 -463 0
462 -463 0
463 -464 0
425 -464 0
464 -465 0
168 -465 0
-47 -466 0
-91 -466 0
-116 -466 0
-144 -466 0
-219 -466 0
362 -467 0
466 -467 0
384 -467 0
467 -468 0
-168 -468 0
465 468 -469 0
44 -470 0
60 -470 0
84 -470 0
-103 -470 0
141 -470 0
-171 -470 0
191 -470 0
-205 -470 0
342 -471 0
258 -471 0
469 -472 0
313 -472 0
308 -472 0
470 -472 0
471 -472 0
472 -473 0
366 -473 0
473 -474 0
-85 -474 0
-111 -476 0
243 -476 0
382 -478 0
381 -478 0
383 -478 0
477 -478 0
475 -479 0
323 -479 0
374 -479 0
379 -479 0
274 -479 0
478 -479 0
251 -481 0
251 -488 0
251 -495 0
251 -504 0
251 -507 0
189 -524 0
-25 -525 0
526 -527 0
251 -528 0
251 -532 0
251 -535 0
-131 -538 0
251 -541 0
2 0
-3 0
6 0
-7 0
10 0
11 0
12 0
-13 0
-14 0
-15 0
-18 0
19 0
-20 0
21 0
23 0
24 0
-26 0
-30 0
31 0
-32 0
33 0
-34 0
35 0
-36 0
37 0
-38 0
39 0
-40 0
-41 0
42 0
-43 0
-45 0
46 0
48 0
49 0
-51 0
52 0
-53 0
54 0
55 0
-56 0
-57 0
58 0
59 0
-61 0
-62 0
-63 0
-64 0
65 0
66 0
67 0
69 0
-70 0
-71 0
73 0
-74 0
-75 0
76 0
77 0
-79 0
81 0
-82 0
-83 0
-86 0
87 0
-88 0
89 0
92 0
93 0
94 0
-96 0
-97 0
98 0
99 0
100 0
101 0
102 0
104 0
-107 0
-108 0
109 0
-112 0
113 0
-114 0
115 0
-117 0
119 0
-120 0
121 0
-122 0
-123 0
-125 0
126 0
-127 0
128 0
129 0
-130 0
-133 0
134 0
-135 0
-136 0
137 0
-138 0
139 0
-140 0
143 0
145 0
-146 0
147 0
148 0
150 0
151 0
152 0
153 0
155 0
156 0
157 0
158 0
-160 0
-161 0
162 0
163 0
164 0
-165 0
-167 0
169 0
-172 0
173 0
174 0
175 0
-176 0
178 0
179 0
180 0
181 0
-182 0
-183 0
184 0
185 0
-186 0
-190 0
192 0
-193 0
-194 0
196 0
-197 0
198 0
200 0
-201 0
-202 0
-203 0
-204 0
206 0
-207 0
-208 0
209 0
-210 0
-212 0
214 0
215 0
216 0
-217 0
218 0
-221 0
-222 0
223 0
224 0
225 0
-226 0
227 0
-228 0
229 0
231 0
-232 0
233 0
-234 0
-235 0
236 0
-237 0
238 0
-239 0
-240 0
-242 0
-244 0
-246 0
-247 0
-249 0
250 0
213 541 0
-539 540 0
-537 538 0
-536 537 0
-534 536 0
-533 534 0
220 532 0
-530 531 0
-527 529 0
-519 520 0
-513 514 0
-512 513 0
-511 512 0
-510 512 0
-509 510 0
-508 509 0
105 507 0
-506 508 0
29 504 0
-503 505 0
-502 503 0
-498 499 0
95 528 0
28 495 0
-331 332 0
-485 486 0
-171 412 417 436 440 0
-362 365 467 0
-329 330 0
-154 404 0
-314 315 0
-378 379 0
85 368 474 0
-376 377 0
-487 489 0
-375 379 0
-248 375 0
-103 415 437 0
124 373 0
-372 374 0
-370 371 0
-484 486 0
-452 453 0
-366 367 473 0
-277 278 0
-187 366 0
-385 386 0
-363 365 0
44 338 0
-358 362 0
-354 355 0
-85 350 460 0
-521 522 0
-338 339 456 0
177 370 0
-349 350 0
-454 455 0
-348 349 360 430 450 0
-353 356 0
-347 349 459 0
142 347 361 461 0
-377 378 0
-346 349 459 0
-345 346 0
-523 524 0
-340 341 0
-531 533 0
68 357 359 0
-308 314 365 434 472 0
-355 356 0
60 340 457 0
248 378 0
-520 521 0
-337 339 0
-282 283 0
-297 299 0
-283 296 0
-490 491 0
-522 523 0
-315 341 0
-538 539 0
-384 385 430 450 467 0
-342 343 364 471 0
-518 519 0
-280 281 0
9 312 336 413 436 439 449 0
-497 498 0
149 280 322 0
189 276 293 334 0
-273 274 0
-482 483 0
-272 273 0
-80 270 0
-444 445 0
-271 272 0
-408 411 0
-241 275 0
-278 281 0
80 273 293 329 0
-423 427 0
241 275 279 322 0
-517 518 0
-334 335 0
-524 525 0
-116 424 461 0
-371 372 0
-332 333 0
-1 258 261 265 336 449 0
-279 280 0
-326 335 0
-257 259 272 277 287 303 310 317 320 343 360 371 377 0
191 261 265 336 406 409 454 0
-287 288 0
-369 386 0
-328 332 0
-110 256 401 0
-351 352 0
-313 314 365 418 431 472 0
-141 344 363 470 0
-457 458 0
-333 334 0
-448 453 0
-168 424 465 0
-356 365 0
-436 437 0
-295 296 0
141 345 0
-449 451 0
-500 502 0
-22 253 398 0
-323 325 479 0
-477 478 0
-360 361 0
-260 262 0
-267 268 0
-269 282 431 0
205 263 266 284 289 316 351 407 470 0
-113 380 497 0
-264 269 0
-262 263 294 0
-258 259 364 426 446 471 0
-330 331 0
-373 374 0
116 380 429 449 466 0
-343 344 0
-367 368 0
-72 348 357 0
-294 295 0
-540 542 0
-189 276 279 326 524 0
-460 475 0
-191 260 363 406 470 0
-496 498 0
159 298 306 0
-483 484 0
-17 381 0
-364 365 0
170 342 0
-78 402 0
-284 285 0
-327 328 0
171 380 418 429 440 449 470 0
-501 502 0
-266 267 317 409 0
-261 262 0
-352 353 0
-205 266 288 0
-304 305 0
-275 277 294 320 333 354 0
-111 286 0
-441 442 0
-415 423 0
-317 318 0
-446 447 0
-319 325 327 455 0
-515 516 0
-291 292 0
243 295 331 355 0
-361 362 0
-44 314 338 363 434 470 0
-268 269 0
-274 282 325 327 352 479 0
-438 443 0
-199 477 0
84 268 291 318 410 0
-286 287 0
47 380 412 420 429 436 442 449 466 0
-263 264 0
-170 342 345 0
-285 292 0
-318 319 0
-95 527 0
-298 299 0
1 258 0
187 347 366 0
-429 431 0
-499 500 0
230 309 0
-491 492 0
-299 300 0
-132 300 336 454 0
-300 308 0
-124 372 0
-391 392 0
-301 305 0
-106 302 0
-365 367 0
-243 283 324 328 353 476 0
-303 304 0
-211 405 0
-305 306 0
-350 369 0
-306 307 0
-430 431 0
-368 369 0
-307 308 0
-310 311 0
-9 311 413 0
-311 313 0
-312 313 0
-68 347 359 0
-259 260 0
-60 315 363 435 470 0
-290 291 0
-413 414 416 0
-505 506 0
-164 380 501 0
-492 493 0
-292 294 330 354 0
-320 321 0
-50 384 0
-514 516 0
-195 376 0
-434 435 0
-321 323 0
-166 254 399 0
-322 323 0
-324 325 0
-380 386 0
-325 326 0
-335 337 0
-293 294 354 0
-388 390 0
91 380 432 452 466 0
-451 452 0
4 270 271 0
-466 467 0
-414 415 0
-344 346 0
16 535 0
-470 472 0
-276 277 0
-281 282 352 0
-471 472 0
-464 465 0
-302 303 0
-153 380 511 0
-417 419 0
-420 421 462 0
-309 310 0
-90 382 0
-91 428 448 461 0
-463 464 0
103 389 422 429 444 449 470 0
219 380 429 449 466 0
-422 423 0
-336 337 0
-316 319 0
-516 517 0
17 381 0
-296 314 0
90 382 0
-94 530 0
-27 383 0
-339 340 0
-8 255 400 0
27 383 0
50 384 424 461 0
-386 387 0
-425 426 446 464 0
-387 388 0
-458 459 0
-250 389 515 0
-389 390 0
-390 391 0
-359 360 462 0
-439 441 0
-84 264 285 316 351 408 470 0
-392 393 0
-393 394 0
-394 395 0
-416 417 0
-395 396 0
-396 397 0
168 380 429 449 468 0
-245 403 0
-406 407 0
-407 408 0
-409 410 0
-410 411 0
118 304 0
-411 427 0
-412 414 0
-219 424 461 0
-418 419 0
-419 421 438 0
-47 420 438 0
-421 422 0
-424 427 447 0
-144 425 0
-426 427 0
-427 428 0
-341 349 0
-428 433 0
-431 432 0
132 307 0
-432 433 0
3 380 485 0
-433 434 0
-435 458 0
-437 445 0
-357 358 0
-440 441 0
-442 443 0
-443 444 0
-445 447 0
-265 267 0
-447 448 0
72 348 424 461 0
-450 451 0
-453 455 0
-270 274 0
-455 456 0
-456 457 0
-459 460 0
-461 463 0
-142 358 0
-462 463 0
144 380 425 429 449 466 0
-465 469 0
-467 468 0
-288 290 0
-468 469 0
-289 290 0
-469 472 0
-472 473 0
-473 474 0
-149 278 293 321 333 0
-474 475 0
-475 479 0
-476 479 0
-478 479 0
-479 480 0
-480 482 0
5 481 0
26 380 490 0
-486 487 0
188 488 0
-489 491 0
-493 494 0
-98 389 476 0
-494 496 0
